"Fe144 C48"
1.0
       10.0691747665         0.0000000000         0.0000000000
        0.0000000000        13.4460659027         0.0000000000
        0.0000000000         0.0000000000        13.5492553711
   Fe    C
  144   48
Direct
     0.087725744         0.033965677         0.109804943
     0.087725766         0.033965684         0.443138272
     0.087725744         0.033965662         0.776471615
     0.087725744         0.533965707         0.109804951
     0.087725766         0.533965707         0.443138272
     0.087725736         0.533965707         0.776471615
     0.587725759         0.033965666         0.109804936
     0.587725759         0.033965677         0.443138242
     0.587725759         0.033965655         0.776471615
     0.587725759         0.533965707         0.109804936
     0.587725759         0.533965707         0.443138242
     0.587725759         0.533965707         0.776471615
     0.412274271         0.466034204         0.223528385
     0.412274241         0.466034204         0.556861699
     0.412274301         0.466034204         0.890195012
     0.412274301         0.966034114         0.223528370
     0.412274271         0.966034114         0.556861699
     0.412274301         0.966034114         0.890195012
     0.912274241         0.466034204         0.223528385
     0.912274241         0.466034204         0.556861758
     0.912274301         0.466034204         0.890195072
     0.912274301         0.966034174         0.223528385
     0.912274241         0.966034114         0.556861758
     0.912274301         0.966034114         0.890195072
     0.162274152         0.466034144         0.276471496
     0.162274182         0.466034144         0.609804869
     0.162274122         0.466034144         0.943138182
     0.162274167         0.966034114         0.276471496
     0.162274182         0.966034114         0.609804869
     0.162274137         0.966034114         0.943138182
     0.662274122         0.466034144         0.276471496
     0.662274182         0.466034144         0.609804809
     0.662274122         0.466034144         0.943138182
     0.662274122         0.966034114         0.276471496
     0.662274182         0.966034114         0.609804809
     0.662274122         0.966034114         0.943138182
     0.337725908         0.033965748         0.056861829
     0.337725878         0.033965752         0.390195131
     0.337725878         0.033965733         0.723528445
     0.337725908         0.533965766         0.056861825
     0.337725878         0.533965766         0.390195131
     0.337725878         0.533965766         0.723528445
     0.837725937         0.033965740         0.056861840
     0.837725878         0.033965744         0.390195131
     0.837725878         0.033965722         0.723528504
     0.837725937         0.533965766         0.056861836
     0.837725878         0.533965766         0.390195131
     0.837725878         0.533965766         0.723528504
     0.412274301         0.283965766         0.223528370
     0.412274271         0.283965766         0.556861699
     0.412274301         0.283965766         0.890195012
     0.412274301         0.783965826         0.223528370
     0.412274271         0.783965826         0.556861699
     0.412274331         0.783965826         0.890195012
     0.912274301         0.283965766         0.223528385
     0.912274241         0.283965766         0.556861699
     0.912274301         0.283965766         0.890195012
     0.912274301         0.783965826         0.223528385
     0.912274241         0.783965826         0.556861699
     0.912274301         0.783965826         0.890195072
     0.087725729         0.216034323         0.109804936
     0.087725751         0.216034308         0.443138242
     0.087725721         0.216034338         0.776471615
     0.087725729         0.716034293         0.109804928
     0.087725751         0.716034293         0.443138242
     0.087725721         0.716034293         0.776471615
     0.587725759         0.216034338         0.109804921
     0.587725759         0.216034323         0.443138242
     0.587725759         0.216034338         0.776471615
     0.587725759         0.716034293         0.109804921
     0.587725759         0.716034293         0.443138242
     0.587725759         0.716034293         0.776471615
     0.337725878         0.216034248         0.056861840
     0.337725848         0.216034248         0.390195161
     0.337725848         0.216034263         0.723528504
     0.337725878         0.716034234         0.056861844
     0.337725848         0.716034234         0.390195161
     0.337725848         0.716034234         0.723528504
     0.837725937         0.216034263         0.056861851
     0.837725878         0.216034248         0.390195161
     0.837725878         0.216034278         0.723528504
     0.837725937         0.716034234         0.056861855
     0.837725878         0.716034234         0.390195161
     0.837725878         0.716034234         0.723528504
     0.162274167         0.283965826         0.276471525
     0.162274197         0.283965826         0.609804869
     0.162274137         0.283965826         0.943138182
     0.162274167         0.783965886         0.276471496
     0.162274197         0.783965886         0.609804869
     0.162274137         0.783965886         0.943138182
     0.662274182         0.283965826         0.276471496
     0.662274182         0.283965826         0.609804869
     0.662274122         0.283965826         0.943138182
     0.662274182         0.783965886         0.276471496
     0.662274182         0.783965886         0.609804869
     0.662274122         0.783965886         0.943138182
     0.019095447         0.125000000         0.277946204
     0.019095441         0.125000000         0.611279547
     0.019095456         0.125000000         0.944612861
     0.019095445         0.624999940         0.277946204
     0.019095439         0.624999940         0.611279547
     0.019095456         0.624999940         0.944612861
     0.519095480         0.125000000         0.277946234
     0.519095480         0.125000000         0.611279547
     0.519095480         0.125000000         0.944612920
     0.519095480         0.624999940         0.277946234
     0.519095480         0.624999940         0.611279547
     0.519095480         0.624999940         0.944612920
     0.480904698         0.374999970         0.055387214
     0.480904728         0.374999970         0.388720542
     0.480904728         0.374999970         0.722053885
     0.480904698         0.875000000         0.055387210
     0.480904728         0.875000000         0.388720542
     0.480904728         0.875000000         0.722053885
     0.980904639         0.374999970         0.055387177
     0.980904698         0.374999970         0.388720512
     0.980904698         0.374999970         0.722053826
     0.980904639         0.875000000         0.055387169
     0.980904698         0.875000000         0.388720512
     0.980904698         0.875000000         0.722053826
     0.230904534         0.374999970         0.111279540
     0.230904505         0.374999970         0.444612890
     0.230904549         0.374999970         0.777946174
     0.230904534         0.875000000         0.111279547
     0.230904505         0.875000000         0.444612890
     0.230904549         0.875000000         0.777946174
     0.730904520         0.374999970         0.111279570
     0.730904460         0.374999970         0.444612920
     0.730904520         0.374999970         0.777946234
     0.730904520         0.875000000         0.111279570
     0.730904460         0.875000000         0.444612920
     0.730904520         0.875000000         0.777946234
     0.269095421         0.125000000         0.222053811
     0.269095391         0.125000000         0.555387199
     0.269095391         0.125000000         0.888720512
     0.269095421         0.624999940         0.222053811
     0.269095391         0.624999940         0.555387199
     0.269095391         0.624999940         0.888720512
     0.769095421         0.125000000         0.222053766
     0.769095421         0.125000000         0.555387139
     0.769095421         0.125000000         0.888720453
     0.769095421         0.624999940         0.222053766
     0.769095421         0.624999940         0.555387139
     0.769095421         0.624999940         0.888720453
     0.438238829         0.124999963         0.146031290
     0.438238859         0.124999963         0.479364634
     0.438238859         0.124999963         0.812698007
     0.438238829         0.625000000         0.146031275
     0.438238859         0.625000000         0.479364604
     0.438238859         0.625000000         0.812697947
     0.938238859         0.124999963         0.146031305
     0.938238859         0.124999963         0.479364634
     0.938238859         0.124999963         0.812698007
     0.938238859         0.625000000         0.146031290
     0.938238859         0.625000000         0.479364634
     0.938238859         0.625000000         0.812698007
     0.061761197         0.375000000         0.187302008
     0.061761204         0.375000000         0.520635307
     0.061761178         0.375000000         0.853968680
     0.061761178         0.875000000         0.187302038
     0.061761189         0.875000000         0.520635366
     0.061761163         0.875000000         0.853968680
     0.561761200         0.375000000         0.187301978
     0.561761200         0.375000000         0.520635307
     0.561761141         0.375000000         0.853968620
     0.561761141         0.875000000         0.187302008
     0.561761141         0.875000000         0.520635366
     0.561761141         0.875000000         0.853968680
     0.311761111         0.375000000         0.312697947
     0.311761111         0.375000000         0.646031320
     0.311761111         0.375000000         0.979364634
     0.311761111         0.875000000         0.312697917
     0.311761081         0.875000000         0.646031260
     0.311761111         0.875000000         0.979364574
     0.811761141         0.375000000         0.312697947
     0.811761141         0.375000000         0.646031320
     0.811761141         0.375000000         0.979364634
     0.811761141         0.875000000         0.312697917
     0.811761141         0.875000000         0.646031260
     0.811761141         0.875000000         0.979364574
     0.188238829         0.124999963         0.020635284
     0.188238844         0.124999963         0.353968620
     0.188238874         0.124999963         0.687301934
     0.188238829         0.625000000         0.020635301
     0.188238844         0.625000000         0.353968620
     0.188238889         0.625000000         0.687301934
     0.688238800         0.124999963         0.020635301
     0.688238800         0.124999963         0.353968620
     0.688238800         0.124999963         0.687301934
     0.688238800         0.625000000         0.020635318
     0.688238800         0.625000000         0.353968650
     0.688238859         0.625000000         0.687301993
