"Fe112"
1.0
       10.2874002457         0.0000000000         0.0000000000
        0.0000000000        10.2874002457         0.0000000000
        0.0000000000         0.0000000000        28.9113998413
   Fe
  112
Direct
     0.000972060         0.000972060         0.000345880
     0.000972060         0.000972053         0.126900777
     0.000972013         0.000972018         0.253713548
     0.000977876         0.000977873         0.376974285
     0.125972062         0.125972062         0.063245878
     0.125972092         0.125972092         0.190187350
     0.125971198         0.125971198         0.315972954
     0.250972062         0.000972060         0.000345880
     0.250972062         0.000972057         0.126900777
     0.250971943         0.000971945         0.253713578
     0.250970572         0.000970549         0.376974285
     0.375972062         0.125972062         0.063245878
     0.375972092         0.125972077         0.190696210
     0.375971884         0.125971869         0.316537380
     0.500972033         0.000972060         0.000345880
     0.500972033         0.000972053         0.126900777
     0.500972033         0.000972018         0.253713578
     0.500977814         0.000977814         0.376974285
     0.625972033         0.125972062         0.063245878
     0.625972092         0.125972092         0.190187350
     0.625971198         0.125971198         0.315972954
     0.750972033         0.000972060         0.000345880
     0.750972092         0.000972057         0.126900777
     0.750971973         0.000971945         0.253713578
     0.750970542         0.000970620         0.376974285
     0.875972033         0.125972062         0.063245878
     0.875972092         0.125972077         0.190696210
     0.875971854         0.125971869         0.316537380
     0.000972060         0.250972062         0.000345880
     0.000972065         0.250972062         0.126900777
     0.000971940         0.250971943         0.253713578
     0.000970549         0.250970572         0.376974285
     0.125972062         0.375972062         0.063245878
     0.125972077         0.375972092         0.190696210
     0.125971869         0.375971884         0.316537380
     0.250972062         0.250972062         0.000345880
     0.250972062         0.250972062         0.126900777
     0.250972003         0.250972003         0.253713578
     0.250977904         0.250977904         0.376974285
     0.375972062         0.375972062         0.063245878
     0.375972092         0.375972092         0.190187350
     0.375971198         0.375971198         0.315972984
     0.500972033         0.250972062         0.000345880
     0.500972092         0.250972062         0.126900792
     0.500971913         0.250971943         0.253713578
     0.500970483         0.250970632         0.376974285
     0.625972033         0.375972062         0.063245878
     0.625972092         0.375972092         0.190696225
     0.625971854         0.375971884         0.316537380
     0.750972033         0.250972062         0.000345880
     0.750972092         0.250972062         0.126900777
     0.750972033         0.250972003         0.253713578
     0.750977814         0.250977814         0.376974285
     0.875972033         0.375972062         0.063245878
     0.875972092         0.375972092         0.190187350
     0.875971198         0.375971198         0.315972954
     0.000972060         0.500972033         0.000345880
     0.000972061         0.500972033         0.126900777
     0.000972013         0.500972033         0.253713578
     0.000977814         0.500977814         0.376974285
     0.125972062         0.625972033         0.063245878
     0.125972092         0.625972092         0.190187350
     0.125971198         0.625971198         0.315972954
     0.250972062         0.500972033         0.000345880
     0.250972062         0.500972033         0.126900792
     0.250971943         0.500971913         0.253713578
     0.250970632         0.500970483         0.376974285
     0.375972062         0.625972033         0.063245878
     0.375972092         0.625972092         0.190696225
     0.375971884         0.625971854         0.316537380
     0.500972033         0.500972033         0.000345880
     0.500972033         0.500972033         0.126900792
     0.500972033         0.500972033         0.253713578
     0.500977755         0.500977755         0.376974285
     0.625972033         0.625972033         0.063245878
     0.625972092         0.625972092         0.190187350
     0.625971198         0.625971198         0.315972954
     0.750972033         0.500972033         0.000345880
     0.750972092         0.500972033         0.126900792
     0.750971973         0.500971913         0.253713578
     0.750970602         0.500970542         0.376974285
     0.875972033         0.625972033         0.063245878
     0.875972092         0.625972092         0.190696210
     0.875971854         0.625971854         0.316537380
     0.000972060         0.750972033         0.000345880
     0.000972064         0.750972092         0.126900777
     0.000971940         0.750971913         0.253713578
     0.000970622         0.750970542         0.376974285
     0.125972062         0.875972033         0.063245878
     0.125972077         0.875972092         0.190696210
     0.125971869         0.875971854         0.316537380
     0.250972062         0.750972033         0.000345880
     0.250972062         0.750972092         0.126900777
     0.250972003         0.750972033         0.253713578
     0.250977814         0.750977814         0.376974285
     0.375972062         0.875972033         0.063245878
     0.375972092         0.875972092         0.190187350
     0.375971198         0.875971198         0.315972954
     0.500972033         0.750972033         0.000345880
     0.500972092         0.750972092         0.126900792
     0.500971913         0.750971913         0.253713578
     0.500970602         0.750970602         0.376974285
     0.625972033         0.875972033         0.063245878
     0.625972092         0.875972092         0.190696210
     0.625971854         0.875971854         0.316537380
     0.750972033         0.750972033         0.000345880
     0.750972092         0.750972092         0.126900777
     0.750972033         0.750972033         0.253713578
     0.750977755         0.750977755         0.376974285
     0.875972033         0.875972033         0.063245878
     0.875972092         0.875972092         0.190187350
     0.875971198         0.875971198         0.315972954
