"Fe120 C48"
1.0
       30.0000000000         0.0000000000         0.0000000000
        0.0000000000        30.0000000000         0.0000000000
        0.0000000000         0.0000000000        30.0000000000
   Fe    C
  120   48
Direct
     0.471362203         0.720883667         0.472668111
     0.592708290         0.639489114         0.403183550
     0.597226262         0.665238142         0.522869825
     0.402416497         0.574983656         0.463980466
     0.388544470         0.600211680         0.380236953
     0.452679396         0.607176304         0.317346394
     0.465516508         0.580872118         0.395571023
     0.529825568         0.574080169         0.318624824
     0.556337059         0.671052635         0.597096920
     0.489025563         0.567353070         0.472436339
     0.532786250         0.716279984         0.532726169
     0.513362825         0.638813674         0.523660541
     0.606929183         0.584818959         0.339725703
     0.496043116         0.511366904         0.362360150
     0.463071615         0.641506314         0.454943419
     0.436704010         0.376163751         0.310116529
     0.505715430         0.648518980         0.378619999
     0.566332161         0.601467669         0.473340750
     0.532130897         0.501599967         0.443098634
     0.544077396         0.681987703         0.456962258
     0.415000826         0.690987825         0.522693694
     0.397143692         0.653677821         0.597638130
     0.531597555         0.633376420         0.679350376
     0.471987635         0.434353054         0.631760180
     0.352549642         0.481977373         0.349927902
     0.320265025         0.576418996         0.481108516
     0.413416445         0.517195404         0.399882108
     0.501087606         0.448604256         0.499426752
     0.446952581         0.495912969         0.561619282
     0.502240777         0.551974416         0.549735606
     0.471953511         0.680529118         0.583498657
     0.432155758         0.575442016         0.595727384
     0.366663963         0.400489926         0.340404928
     0.333031386         0.545299351         0.407781810
     0.437079638         0.615348279         0.528400719
     0.384730279         0.445937335         0.414208561
     0.375259697         0.649672687         0.459268659
     0.416137874         0.531412303         0.320707679
     0.478693694         0.516993046         0.631866157
     0.435105920         0.690437019         0.401485443
     0.377159297         0.540152133         0.540159523
     0.353798091         0.575287402         0.610581100
     0.479213417         0.482066840         0.707522810
     0.402664781         0.442744792         0.676598728
     0.360806912         0.497365713         0.470191151
     0.297361612         0.499986440         0.516407311
     0.327046990         0.418752193         0.493773371
     0.438720793         0.501168191         0.479926705
     0.431938708         0.564805984         0.677861094
     0.537836254         0.394037873         0.596226752
     0.452700973         0.640072703         0.657183111
     0.395025492         0.501226008         0.623011708
     0.345998168         0.378815234         0.418654412
     0.416577458         0.407355607         0.477470756
     0.379574686         0.451875091         0.546486735
     0.404606760         0.329716295         0.455764383
     0.321721166         0.487231016         0.593139112
     0.303580999         0.462572604         0.427451640
     0.325130522         0.403542340         0.585725367
     0.358001679         0.628218830         0.535446286
     0.654682815         0.622690380         0.469662249
     0.574624300         0.593876004         0.556114972
     0.702309370         0.535786450         0.550827205
     0.716827691         0.460449815         0.496936649
     0.586315930         0.495013595         0.381405652
     0.631000042         0.565930247         0.416581571
     0.675040066         0.501053095         0.387356430
     0.692437708         0.530721068         0.465365469
     0.682434499         0.479737878         0.614348531
     0.653946400         0.413298070         0.476604700
     0.659675002         0.609067857         0.559097409
     0.627666891         0.556966662         0.503210485
     0.551739752         0.491257489         0.304647595
     0.476092070         0.489734292         0.281171918
     0.626690865         0.537148952         0.585781753
     0.596333325         0.429160088         0.326757699
     0.547227442         0.571282923         0.400312960
     0.633926988         0.512587845         0.315685660
     0.642745554         0.428847492         0.398458570
     0.619745314         0.486926436         0.455771893
     0.554169357         0.535400867         0.612936497
     0.509239078         0.604979157         0.607826889
     0.632166505         0.453375250         0.675366461
     0.669205785         0.413558692         0.565181017
     0.499244153         0.378594100         0.441216439
     0.529369473         0.433769345         0.373602748
     0.505371571         0.349938363         0.353606880
     0.574448764         0.364216536         0.393143296
     0.677274823         0.563493907         0.636028647
     0.599168897         0.346607238         0.562580466
     0.608451486         0.606163144         0.630026340
     0.522503912         0.469336063         0.574937940
     0.512160301         0.416377932         0.298568219
     0.394624442         0.454557359         0.283800721
     0.599029720         0.351421326         0.481125414
     0.440525651         0.450878143         0.346139222
     0.564468563         0.511293352         0.519589961
     0.565723479         0.426464468         0.447749853
     0.526727021         0.375981539         0.517484844
     0.647350371         0.481629342         0.531149745
     0.552357197         0.441681594         0.732447445
     0.597392440         0.527630627         0.680184662
     0.545780063         0.461543918         0.657962203
     0.611538470         0.384261578         0.638075709
     0.377737671         0.363092065         0.538071573
     0.433940411         0.382823944         0.393221617
     0.466598243         0.350685239         0.625707507
     0.587467611         0.427985281         0.526349723
     0.538765609         0.374782234         0.675935507
     0.523177505         0.310029656         0.566734612
     0.519044280         0.553681374         0.691786528
     0.476395011         0.403625101         0.709226489
     0.386122257         0.325070679         0.370990485
     0.466209769         0.305554599         0.408162445
     0.600411654         0.460311025         0.598212302
     0.521192789         0.306375414         0.471025765
     0.458035171         0.404020399         0.557196379
     0.469588608         0.452541769         0.422008574
     0.398122132         0.392719895         0.613844931
     0.457179904         0.328741342         0.524565697
     0.604492903         0.661682248         0.460824966
     0.613105118         0.646439254         0.581541836
     0.470015436         0.720166147         0.535602868
     0.495816261         0.696406662         0.418528050
     0.474341631         0.549114764         0.304095179
     0.655817091         0.552869916         0.359537750
     0.347505540         0.601996303         0.429289371
     0.556306481         0.620531678         0.353800565
     0.412962258         0.699776530         0.459684551
     0.568000078         0.583366930         0.669699013
     0.505359411         0.669407308         0.635800004
     0.398798019         0.608343124         0.643301547
     0.439416796         0.450461596         0.518805027
     0.453421831         0.430225700         0.279863149
     0.307546347         0.542222500         0.567965388
     0.366508275         0.544677258         0.355330706
     0.361456156         0.445017606         0.624721527
     0.427179128         0.501091421         0.677369177
     0.479871869         0.601880014         0.698483884
     0.317787915         0.581473827         0.547810614
     0.356658459         0.364756137         0.478890657
     0.473229915         0.521085262         0.425607562
     0.304395139         0.445956349         0.546413124
     0.299488753         0.520754755         0.455868900
     0.688865423         0.581931889         0.507602811
     0.656990111         0.424573988         0.625803471
     0.707613885         0.469619006         0.557624876
     0.582323015         0.540403903         0.453958869
     0.648125172         0.460718930         0.345462710
     0.681056499         0.463736802         0.440405369
     0.441199005         0.550603151         0.521922052
     0.582649767         0.544899821         0.298815638
     0.637714386         0.376873285         0.524595082
     0.588150024         0.410731226         0.691799819
     0.656593263         0.511325002         0.663851440
     0.440435737         0.637923837         0.369372517
     0.554822266         0.383038849         0.334838569
     0.620670140         0.381846488         0.431518704
     0.527189374         0.324452102         0.409363896
     0.327761441         0.429406852         0.380237997
     0.525356174         0.328352511         0.629883766
     0.569928050         0.336629570         0.621299267
     0.542412758         0.500503063         0.714587271
     0.433135003         0.388299972         0.666075349
     0.458601445         0.298293293         0.469797283
     0.562145710         0.316545814         0.518318832
     0.425731480         0.348368406         0.577105761
     0.445993900         0.327590793         0.351408958
