"Fe120 C48"
1.0
       11.5770616531         0.0000000000         0.0000000000
        0.0000036273        13.6203174591         0.0000000000
       -1.3699127460         0.0000003648         9.9195176189
   Fe    C
  120   48
Direct
     0.714885533         0.027207183         0.155882269
     0.714885533         0.027207226         0.655882299
     0.714886010         0.360540897         0.155882806
     0.714886010         0.360540956         0.655882835
     0.714886069         0.693873823         0.155882344
     0.714886069         0.693873882         0.655882418
     0.785125434         0.193882257         0.094101086
     0.785125494         0.193882063         0.594101369
     0.785125434         0.527215540         0.094101347
     0.785125434         0.527215362         0.594101608
     0.785125017         0.860548973         0.094101049
     0.785125077         0.860548735         0.594101310
     0.785116792         0.139462724         0.344122261
     0.785116613         0.139462635         0.844122052
     0.785116374         0.472795576         0.344121605
     0.785116196         0.472795516         0.844121397
     0.785116374         0.806129038         0.344121844
     0.785116196         0.806128919         0.844121635
     0.714870453         0.306116670         0.405896932
     0.714870512         0.306116670         0.905897081
     0.714869916         0.639450192         0.405896723
     0.714869976         0.639450192         0.905896842
     0.714870214         0.972783208         0.405897141
     0.714870334         0.972783208         0.905897260
     0.214900747         0.193916842         0.155948564
     0.214900851         0.193916649         0.655948400
     0.214900836         0.527250946         0.155950218
     0.214900941         0.527250767         0.655950010
     0.214900300         0.860583425         0.155949160
     0.214900404         0.860583246         0.655948937
     0.285147697         0.027134599         0.094235845
     0.285147578         0.027134890         0.594235659
     0.285148263         0.360467196         0.094236873
     0.285148144         0.360467464         0.594236732
     0.285147697         0.693800569         0.094236895
     0.285147548         0.693800867         0.594236732
     0.285105050         0.306081504         0.344050467
     0.285105348         0.306081533         0.844050646
     0.285104275         0.639414012         0.344049692
     0.285104573         0.639414012         0.844049871
     0.285104573         0.972748101         0.344050974
     0.285104871         0.972748101         0.844051182
     0.214854032         0.139535174         0.405761987
     0.214853689         0.139535010         0.905762255
     0.214853823         0.472869486         0.405760407
     0.214853480         0.472869337         0.905760646
     0.214853317         0.806202531         0.405761003
     0.214852974         0.806202412         0.905761242
     0.902049899         0.306392163         0.291986763
     0.902049780         0.306392223         0.791986704
     0.902050018         0.639725804         0.291986316
     0.902049899         0.639725864         0.791986287
     0.902050078         0.973058701         0.291986883
     0.902049959         0.973058760         0.791986823
     0.597952187         0.139720649         0.457997411
     0.597952306         0.139720604         0.957997322
     0.597952127         0.473053753         0.457997113
     0.597952247         0.473053694         0.957997024
     0.597952187         0.806387186         0.457997203
     0.597952306         0.806387186         0.957997143
     0.902048945         0.026955113         0.042011723
     0.902049065         0.026955366         0.542011976
     0.902048945         0.360288411         0.042011794
     0.902049065         0.360288650         0.542012036
     0.902049065         0.693621874         0.042012118
     0.902049184         0.693622112         0.542012393
     0.597949445         0.193612188         0.208006874
     0.597949564         0.193612114         0.708006918
     0.597949445         0.526945531         0.208006933
     0.597949564         0.526945472         0.708006978
     0.597949445         0.860279143         0.208006740
     0.597949564         0.860279083         0.708006799
     0.000001337         0.145513982         0.374988735
     0.000001439         0.145513892         0.874988794
     0.000001513         0.478847325         0.374988526
     0.000001613         0.478847235         0.874988616
     0.000002020         0.812180698         0.374988616
     0.000002120         0.812180579         0.874988735
     0.999980032         0.187824085         0.125000402
     0.999979973         0.187824026         0.625000417
     0.999980032         0.521157444         0.125000611
     0.999979973         0.521157384         0.625000596
     0.999980450         0.854490697         0.125000566
     0.999980330         0.854490638         0.625000596
     0.402044088         0.139711529         0.292003751
     0.402044058         0.139711887         0.792003334
     0.402043790         0.473044664         0.292003989
     0.402043790         0.473045021         0.792003572
     0.402043968         0.806378126         0.292003751
     0.402043939         0.806378484         0.792003334
     0.097948685         0.306360334         0.457991183
     0.097948745         0.306360722         0.957991481
     0.097949021         0.639693856         0.457991302
     0.097949073         0.639694273         0.957991660
     0.097948737         0.973026931         0.457990974
     0.097948790         0.973027289         0.957991302
     0.402052402         0.193640590         0.042011566
     0.402052343         0.193640217         0.542011321
     0.402052253         0.526973784         0.042011384
     0.402052194         0.526973426         0.542011142
     0.402052462         0.860307395         0.042011600
     0.402052402         0.860306978         0.542011321
     0.097955532         0.026961064         0.207991645
     0.097955421         0.026960997         0.707991779
     0.097955622         0.360294402         0.207991630
     0.097955510         0.360294342         0.707991779
     0.097955793         0.693627954         0.207991347
     0.097955681         0.693627834         0.707991481
     0.500018418         0.312170118         0.374999255
     0.500018418         0.312170029         0.874999225
     0.500018895         0.645503342         0.374999195
     0.500018895         0.645503283         0.874999166
     0.500018656         0.978836715         0.374999344
     0.500018656         0.978836596         0.874999285
     0.499996394         0.021151055         0.125010878
     0.499996543         0.021151196         0.625010788
     0.499995947         0.354484349         0.125010878
     0.499996066         0.354484499         0.625010788
     0.499996454         0.687817633         0.125010878
     0.499996573         0.687817752         0.625010788
     0.613845110         0.062219016         0.289850742
     0.613845170         0.062219046         0.789850891
     0.613845170         0.395552427         0.289850801
     0.613845229         0.395552456         0.789851010
     0.613845229         0.728885412         0.289851218
     0.613845289         0.728885412         0.789851427
     0.886148632         0.228873044         0.460154414
     0.886148512         0.228873223         0.960154533
     0.886148632         0.562206328         0.460154772
     0.886148512         0.562206507         0.960154891
     0.886148691         0.895539939         0.460154563
     0.886148572         0.895540178         0.960154712
     0.886155605         0.104443431         0.210145190
     0.886155725         0.104443401         0.710145056
     0.886155427         0.437776715         0.210145339
     0.886155486         0.437776685         0.710145235
     0.886155546         0.771109700         0.210145369
     0.886155605         0.771109641         0.710145235
     0.613852084         0.271119684         0.039841641
     0.613852024         0.271119684         0.539841592
     0.613852143         0.604453325         0.039842002
     0.613852143         0.604453325         0.539842010
     0.613852143         0.937786520         0.039841797
     0.613852143         0.937786460         0.539841771
     0.113865510         0.228850693         0.289884806
     0.113865465         0.228850707         0.789884686
     0.113866515         0.562183440         0.289885193
     0.113866471         0.562183440         0.789885104
     0.113866098         0.895516932         0.289885372
     0.113866054         0.895516932         0.789885283
     0.386184305         0.062222909         0.460122228
     0.386184305         0.062222671         0.960122287
     0.386184365         0.395556390         0.460121989
     0.386184365         0.395556152         0.960122049
     0.386184394         0.728889704         0.460122049
     0.386184394         0.728889465         0.960122108
     0.386131018         0.271145791         0.210118264
     0.386131227         0.271145552         0.710119069
     0.386130810         0.604479134         0.210118368
     0.386130989         0.604478836         0.710119128
     0.386131525         0.937812150         0.210118636
     0.386131734         0.937811911         0.710119426
     0.113815181         0.104442991         0.039881777
     0.113815144         0.104443155         0.539882123
     0.113814935         0.437775999         0.039881907
     0.113814898         0.437776148         0.539882243
     0.113815129         0.771109462         0.039881911
     0.113815092         0.771109581         0.539882243
